MARKOV
840
 2 2 2 2 2 2 2 2 2 2 2 2 2 2 2 2 2 2 2 2 2 2 2 2 2 2 2 2 2 2 2 2 2 2 2 2 2 2 2 2 2 2 2 2 2 2 2 2 2 2 2 2 2 2 2 2 2 2 2 2 2 2 2 2 2 2 2 2 2 2 2 2 2 2 2 2 2 2 2 2 2 2 2 2 2 2 2 2 2 2 2 2 2 2 2 2 2 2 2 2 2 2 2 2 2 2 2 2 2 2 2 2 2 2 2 2 2 2 2 2 2 2 2 2 2 2 2 2 2 2 2 2 2 2 2 2 2 2 2 2 2 2 2 2 2 2 2 2 2 2 2 2 2 2 2 2 2 2 2 2 2 2 2 2 2 2 2 2 2 2 2 2 2 2 2 2 2 2 2 2 2 2 2 2 2 2 2 2 2 2 2 2 2 2 2 2 2 2 2 2 2 2 2 2 2 2 2 2 2 2 2 2 2 2 2 2 2 2 2 2 2 2 2 2 2 2 2 2 2 2 2 2 2 2 2 2 2 2 2 2 2 2 2 2 2 2 2 2 2 2 2 2 2 2 2 2 2 2 2 2 2 2 2 2 2 2 2 2 2 2 2 2 2 2 2 2 2 2 2 2 2 2 2 2 2 2 2 2 2 2 2 2 2 2 2 2 2 2 2 2 2 2 2 2 2 2 2 2 2 2 2 2 2 2 2 2 2 2 2 2 2 2 2 2 2 2 2 2 2 2 2 2 2 2 2 2 2 2 2 2 2 2 2 2 2 2 2 2 2 2 2 2 2 2 2 2 2 2 2 2 2 2 2 2 2 2 2 2 2 2 2 2 2 2 2 2 2 2 2 2 2 2 2 2 2 2 2 2 2 2 2 2 2 2 2 2 2 2 2 2 2 2 2 2 2 2 2 2 2 2 2 2 2 2 2 2 2 2 2 2 2 2 2 2 2 2 2 2 2 2 2 2 2 2 2 2 2 2 2 2 2 2 2 2 2 2 2 2 2 2 2 2 2 2 2 2 2 2 2 2 2 2 2 2 2 2 2 2 2 2 2 2 2 2 2 2 2 2 2 2 2 2 2 2 2 2 2 2 2 2 2 2 2 2 2 2 2 2 2 2 2 2 2 2 2 2 2 2 2 2 2 2 2 2 2 2 2 2 2 2 2 2 2 2 2 2 2 2 2 2 2 2 2 2 2 2 2 2 2 2 2 2 2 2 2 2 2 2 2 2 2 2 2 2 2 2 2 2 2 2 2 2 2 2 2 2 2 2 2 2 2 2 2 2 2 2 2 2 2 2 2 2 2 2 2 2 2 2 2 2 2 2 2 2 2 2 2 2 2 2 2 2 2 2 2 2 2 2 2 2 2 2 2 2 2 2 2 2 2 2 2 2 2 2 2 2 2 2 2 2 2 2 2 2 2 2 2 2 2 2 2 2 2 2 2 2 2 2 2 2 2 2 2 2 2 2 2 2 2 2 2 2 2 2 2 2 2 2 2 2 2 2 2 2 2 2 2 2 2 2 2 2 2 2 2 2 2 2 2 2 2 2 2 2 2 2 2 2 2 2 2 2 2 2 2 2 2 2 2 2 2 2 2 2 2 2 2 2 2 2 2 2 2 2 2 2 2 2 2 2 2 2 2 2 2 2 2 2 2 2 2 2 2 2 2 2 2 2 2 2 2 2 2 2 2 2 2 2 2 2 2 2 2 2 2 2 2 2 2 2 2 2 2 2 2 2 2 2 2 2 2 2 2 2 2 2 2 2 2 2 2 2 2 2 2 2 2 2 2 2 2 2 2 2 2 2 2 2 2 2 2 2 2 2 2 2 2 2 2 2 2 2 2 2 2 2 2 2 2 2 2 2 2 2 2 2 2 2 2 2
856
3	54 80 839 
3	88 838 839 
3	166 837 838 
3	192 836 837 
3	118 835 836 
3	24 834 835 
3	266 833 834 
3	239 832 833 
3	190 831 832 
3	255 830 831 
3	114 829 830 
3	208 828 829 
3	18 827 828 
3	133 826 827 
3	170 825 826 
3	194 824 825 
3	148 823 824 
1	823 
3	62 121 822 
3	10 821 822 
3	265 820 821 
3	243 819 820 
3	125 818 819 
3	154 817 818 
3	226 816 817 
3	111 815 816 
3	120 814 815 
3	213 813 814 
3	210 812 813 
3	141 811 812 
3	105 810 811 
3	108 809 810 
3	5 808 809 
3	140 807 808 
1	807 
3	54 102 806 
3	211 805 806 
3	135 804 805 
3	100 803 804 
3	103 802 803 
3	24 801 802 
3	190 800 801 
3	114 799 800 
3	57 798 799 
3	208 797 798 
3	48 796 797 
3	133 795 796 
3	148 794 795 
3	217 793 794 
3	158 792 793 
3	33 791 792 
3	43 790 791 
3	80 789 790 
3	109 788 789 
3	98 787 788 
3	49 786 787 
3	101 785 786 
3	106 784 785 
3	14 783 784 
3	258 782 783 
3	41 781 782 
3	198 780 781 
3	266 779 780 
3	212 778 779 
3	74 777 778 
3	73 776 777 
3	13 775 776 
3	153 774 775 
3	23 773 774 
3	232 772 773 
3	18 771 772 
3	55 770 771 
3	237 769 770 
3	62 768 769 
3	112 767 768 
3	88 766 767 
3	2 765 766 
3	189 764 765 
3	249 763 764 
3	166 762 763 
3	37 761 762 
3	239 760 761 
3	29 759 760 
3	40 758 759 
3	64 757 758 
3	12 756 757 
3	170 755 756 
3	177 754 755 
3	194 753 754 
3	164 752 753 
3	4 751 752 
3	93 750 751 
3	1 749 750 
3	136 748 749 
3	63 747 748 
3	91 746 747 
3	179 745 746 
3	45 744 745 
3	192 743 744 
3	34 742 743 
3	255 741 742 
3	161 740 741 
3	99 739 740 
3	175 738 739 
3	260 737 738 
3	209 736 737 
1	736 
3	128 199 735 
3	102 734 735 
3	0 733 734 
3	206 732 733 
3	172 731 732 
3	247 730 731 
3	127 729 730 
3	180 728 729 
3	42 727 728 
3	267 726 727 
3	263 725 726 
3	236 724 725 
3	250 723 724 
3	253 722 723 
3	86 721 722 
3	198 720 721 
3	165 719 720 
3	73 718 719 
3	13 717 718 
3	227 716 717 
3	197 715 716 
3	244 714 715 
3	19 713 714 
3	220 712 713 
3	186 711 712 
3	251 710 711 
3	143 709 710 
3	75 708 709 
3	157 707 708 
3	256 706 707 
3	222 705 706 
3	110 704 705 
3	218 703 704 
3	92 702 703 
3	12 701 702 
3	149 700 701 
3	176 699 700 
3	142 698 699 
3	152 697 698 
3	233 696 697 
3	238 695 696 
3	99 694 695 
3	141 693 694 
3	205 692 693 
3	185 691 692 
3	225 690 691 
3	151 689 690 
3	100 688 689 
3	196 687 688 
3	103 686 687 
3	24 685 686 
3	28 684 685 
3	94 683 684 
3	104 682 683 
3	246 681 682 
3	183 680 681 
3	156 679 680 
3	122 678 679 
3	171 677 678 
3	59 676 677 
3	258 675 676 
3	9 674 675 
3	228 673 674 
3	163 672 673 
3	181 671 672 
3	144 670 671 
3	153 669 670 
3	182 668 669 
3	262 667 668 
3	90 666 667 
3	138 665 666 
3	65 664 665 
3	207 663 664 
3	201 662 663 
3	15 661 662 
3	11 660 661 
3	51 659 660 
3	120 658 659 
3	224 657 658 
3	115 656 657 
3	161 655 656 
3	160 654 655 
3	169 653 654 
3	58 652 653 
3	146 651 652 
1	651 
3	89 257 650 
1	650 
3	68 78 649 
3	7 648 649 
3	116 647 648 
3	253 646 647 
3	20 645 646 
3	83 644 645 
3	167 643 644 
3	90 642 643 
3	234 641 642 
3	126 640 641 
3	257 639 640 
3	115 638 639 
3	94 637 638 
3	6 636 637 
3	46 635 636 
3	56 634 635 
3	182 633 634 
3	261 632 633 
1	632 
3	102 128 631 
3	206 630 631 
3	0 629 630 
3	172 628 629 
3	151 627 628 
3	196 626 627 
3	180 625 626 
3	114 624 625 
3	104 623 624 
3	94 622 623 
3	46 621 622 
3	263 620 621 
3	246 619 620 
3	184 618 619 
3	30 617 618 
3	133 616 617 
3	230 615 616 
3	77 614 615 
3	250 613 614 
3	183 612 613 
3	156 611 612 
3	253 610 611 
3	70 609 610 
3	86 608 609 
3	167 607 608 
3	171 606 607 
3	59 605 606 
3	163 604 605 
3	227 603 604 
3	182 602 603 
3	244 601 602 
3	19 600 601 
3	220 599 600 
3	186 598 599 
3	116 597 598 
3	243 596 597 
3	143 595 596 
3	138 594 595 
3	222 593 594 
3	92 592 593 
3	207 591 592 
3	201 590 591 
3	15 589 590 
3	11 588 589 
3	7 587 588 
3	51 586 587 
3	83 585 586 
3	229 584 585 
3	145 583 584 
3	152 582 583 
3	257 581 582 
3	120 580 581 
3	233 579 580 
3	115 578 579 
3	160 577 578 
3	169 576 577 
3	209 575 576 
3	146 574 575 
1	574 
3	6 89 573 
3	257 572 573 
3	30 571 572 
1	571 
3	102 265 570 
3	100 569 570 
3	71 568 569 
3	103 567 568 
3	114 566 567 
3	150 565 566 
3	29 564 565 
3	82 563 564 
3	177 562 563 
3	170 561 562 
3	133 560 561 
3	43 559 560 
3	21 558 559 
3	36 557 558 
3	109 556 557 
3	215 555 556 
3	101 554 555 
3	107 553 554 
3	258 552 553 
3	137 551 552 
3	198 550 551 
3	212 549 550 
3	255 548 549 
3	99 547 548 
3	96 546 547 
3	155 545 546 
3	237 544 545 
1	544 
3	68 78 543 
3	7 542 543 
3	116 541 542 
3	253 540 541 
3	20 539 540 
3	83 538 539 
3	90 537 538 
3	167 536 537 
3	234 535 536 
3	126 534 535 
3	257 533 534 
3	115 532 533 
3	94 531 532 
3	6 530 531 
3	46 529 530 
3	56 528 529 
3	182 527 528 
3	261 526 527 
3	230 525 526 
1	525 
1	257 
3	77 229 524 
3	196 523 524 
3	263 522 523 
1	522 
3	102 202 521 
3	26 520 521 
3	8 519 520 
3	135 518 519 
3	87 517 518 
3	265 516 517 
3	100 515 516 
3	71 514 515 
3	3 513 514 
3	2 512 513 
3	103 511 512 
3	114 510 511 
3	150 509 510 
3	29 508 509 
3	82 507 508 
3	133 506 507 
3	170 505 506 
3	177 504 505 
3	43 503 504 
3	78 502 503 
3	21 501 502 
3	36 500 501 
3	109 499 500 
3	204 498 499 
3	215 497 498 
3	101 496 497 
3	107 495 496 
3	258 494 495 
3	137 493 494 
3	198 492 493 
3	212 491 492 
3	255 490 491 
3	173 489 490 
3	99 488 489 
3	97 487 488 
3	264 486 487 
3	96 485 486 
3	155 484 485 
3	237 483 484 
1	483 
3	102 128 482 
3	0 481 482 
3	206 480 481 
3	172 479 480 
3	151 478 479 
3	196 477 478 
3	180 476 477 
3	94 475 476 
3	104 474 475 
3	263 473 474 
3	246 472 473 
3	183 471 472 
3	250 470 471 
3	156 469 470 
3	253 468 469 
3	86 467 468 
3	171 466 467 
3	59 465 466 
3	163 464 465 
3	227 463 464 
3	182 462 463 
3	244 461 462 
3	19 460 461 
3	220 459 460 
3	186 458 459 
3	138 457 458 
3	222 456 457 
3	207 455 456 
3	92 454 455 
3	201 453 454 
3	15 452 453 
3	11 451 452 
3	51 450 451 
3	152 449 450 
3	120 448 449 
3	233 447 448 
3	115 446 447 
3	160 445 446 
3	169 444 445 
3	146 443 444 
1	443 
3	199 206 442 
3	66 441 442 
3	84 440 441 
3	235 439 440 
3	114 438 439 
3	42 437 438 
3	47 436 437 
3	263 435 436 
3	85 434 435 
3	250 433 434 
3	174 432 433 
3	147 431 432 
3	106 430 431 
3	35 429 430 
3	132 428 429 
3	123 427 428 
3	27 426 427 
3	200 425 426 
3	227 424 425 
3	244 423 424 
3	220 422 423 
3	186 421 422 
3	143 420 421 
3	243 419 420 
3	231 418 419 
3	75 417 418 
3	239 416 417 
3	222 415 416 
3	89 414 415 
3	110 413 414 
3	93 412 413 
3	229 411 412 
3	83 410 411 
3	53 409 410 
3	17 408 409 
3	99 407 408 
3	141 406 407 
3	223 405 406 
3	100 404 405 
3	234 403 404 
3	188 402 403 
3	39 401 402 
3	69 400 401 
3	196 399 400 
3	103 398 399 
3	259 397 398 
3	81 396 397 
3	72 395 396 
3	104 394 395 
3	48 393 394 
3	246 392 393 
3	133 391 392 
3	148 390 391 
3	240 389 390 
3	77 388 389 
3	78 387 388 
3	156 386 387 
3	70 385 386 
3	14 384 385 
3	134 383 384 
3	60 382 383 
3	59 381 382 
3	252 380 381 
3	219 379 380 
3	212 378 379 
3	181 377 378 
3	23 376 377 
3	56 375 376 
3	6 374 375 
3	182 373 374 
3	55 372 373 
3	139 371 372 
3	68 370 371 
3	187 369 370 
3	22 368 369 
3	90 367 368 
3	119 366 367 
3	216 365 366 
3	242 364 365 
3	201 363 364 
3	82 362 363 
3	11 361 362 
3	162 360 361 
3	63 359 360 
3	159 358 359 
3	120 357 358 
3	115 356 357 
3	248 355 356 
3	95 354 355 
3	209 353 354 
3	178 352 353 
3	128 351 352 
3	131 350 351 
3	102 349 350 
3	54 348 349 
3	0 347 348 
3	172 346 347 
3	247 345 346 
3	61 344 345 
3	38 343 344 
3	180 342 343 
3	245 341 342 
3	46 340 341 
3	208 339 340 
3	254 338 339 
3	30 337 338 
3	230 336 337 
3	253 335 336 
3	167 334 335 
3	86 333 334 
3	198 332 333 
3	124 331 332 
3	232 330 331 
3	195 329 330 
3	237 328 329 
3	19 327 328 
3	67 326 327 
3	117 325 326 
3	191 324 325 
3	256 323 324 
3	168 322 323 
3	32 321 322 
3	129 320 321 
3	218 319 320 
3	92 318 319 
3	149 317 318 
3	194 316 317 
3	176 315 316 
3	145 314 315 
3	142 313 314 
3	152 312 313 
3	126 311 312 
3	76 310 311 
3	257 309 310 
3	193 308 309 
3	233 307 308 
3	205 306 307 
3	113 305 306 
3	221 304 305 
3	225 303 304 
3	130 302 303 
3	151 301 302 
3	265 300 301 
3	203 299 300 
3	3 298 299 
3	24 297 298 
3	31 296 297 
3	28 295 296 
3	94 294 295 
3	184 293 294 
3	241 292 293 
3	183 291 292 
3	20 290 291 
3	171 289 290 
3	258 288 289 
3	214 287 288 
3	163 286 287 
3	144 285 286 
3	116 284 285 
3	262 283 284 
3	138 282 283 
3	79 281 282 
3	52 280 281 
3	50 279 280 
3	44 278 279 
3	207 277 278 
3	16 276 277 
3	15 275 276 
3	7 274 275 
3	51 273 274 
3	25 272 273 
3	160 271 272 
3	169 270 271 
3	58 269 270 
3	146 268 269 
1	268 
1	199 
1	206 
1	135 
1	66 
1	84 
1	111 
1	190 
1	235 
1	114 
1	42 
1	57 
1	47 
1	263 
1	236 
1	158 
1	217 
1	85 
1	250 
1	174 
1	147 
1	101 
1	106 
1	35 
1	132 
1	123 
1	27 
1	227 
1	200 
1	197 
1	244 
1	8 
1	220 
1	186 
1	143 
1	243 
1	231 
1	75 
1	37 
1	210 
1	213 
1	239 
1	222 
1	89 
1	110 
1	12 
1	170 
1	10 
1	136 
1	93 
1	179 
1	229 
1	83 
1	53 
1	17 
1	255 
1	238 
1	99 
1	260 
1	141 
1	264 
1	223 
1	185 
1	261 
1	121 
1	202 
1	100 
1	234 
1	188 
1	39 
1	69 
1	196 
1	103 
1	259 
1	81 
1	72 
1	104 
1	48 
1	246 
1	133 
1	148 
1	240 
1	77 
1	78 
1	36 
1	98 
1	156 
1	70 
1	14 
1	134 
1	59 
1	60 
1	252 
1	219 
1	212 
1	228 
1	9 
1	74 
1	181 
1	23 
1	153 
1	56 
1	6 
1	182 
1	55 
1	26 
1	139 
1	62 
1	68 
1	112 
1	187 
1	22 
1	90 
1	249 
1	150 
1	119 
1	216 
1	40 
1	242 
1	201 
1	82 
1	164 
1	4 
1	11 
1	63 
1	162 
1	137 
1	159 
1	34 
1	120 
1	115 
1	248 
1	95 
1	209 
1	178 
1	128 
1	102 
1	131 
1	0 
1	54 
1	172 
1	87 
1	247 
1	61 
1	71 
1	127 
1	226 
1	38 
1	245 
1	180 
1	267 
1	46 
1	208 
1	254 
1	5 
1	30 
1	230 
1	43 
1	21 
1	80 
1	204 
1	109 
1	253 
1	167 
1	86 
1	41 
1	198 
1	165 
1	266 
1	73 
1	173 
1	13 
1	124 
1	108 
1	232 
1	155 
1	195 
1	237 
1	19 
1	251 
1	67 
1	125 
1	157 
1	191 
1	117 
1	256 
1	168 
1	29 
1	129 
1	32 
1	218 
1	92 
1	149 
1	194 
1	177 
1	176 
1	91 
1	45 
1	145 
1	142 
1	76 
1	126 
1	152 
1	257 
1	192 
1	193 
1	233 
1	205 
1	113 
1	225 
1	221 
1	130 
1	151 
1	211 
1	265 
1	203 
1	3 
1	24 
1	31 
1	28 
1	94 
1	184 
1	241 
1	33 
1	183 
1	49 
1	20 
1	122 
1	107 
1	258 
1	171 
1	214 
1	118 
1	163 
1	144 
1	97 
1	18 
1	262 
1	116 
1	154 
1	138 
1	88 
1	79 
1	65 
1	189 
1	2 
1	50 
1	52 
1	166 
1	44 
1	64 
1	207 
1	16 
1	15 
1	7 
1	215 
1	1 
1	51 
1	224 
1	25 
1	161 
1	175 
1	160 
1	105 
1	169 
1	96 
1	58 
1	140 
1	146 
0	

8
 1 0 0.1 0.9 0.5 0.5 0.05 0.95
8
 1 0 0 1 0.5 0 0.5 1
8
 1 0 0 1 0.5 0 0.5 1
8
 1 0 0 1 0.05 0 0.95 1
8
 1 0 0 1 0.5 0 0.5 1
8
 1 0 0 1 0.5 0 0.5 1
8
 1 0 0 1 0.2 0 0.8 1
8
 1 0 0 1 0.5 0 0.5 1
8
 1 0 0 1 0.5 0 0.5 1
8
 1 0 0 1 0.05 0 0.95 1
8
 1 0 0 1 0.01 0 0.99 1
8
 1 0 0 1 0.5 0 0.5 1
8
 1 0 0 1 0.3 0 0.7 1
8
 1 0 0 1 0.01 0 0.99 1
8
 1 0 0 1 0 0 1 1
8
 1 0 0 1 0.5 0 0.5 1
8
 1 0 0 1 0.2 0 0.8 1
2
 0.03 1
8
 1 0 0.01 0.99 0.01 0.99 0.0001 0.9999
8
 1 0 0 1 0.01 0 0.99 1
8
 1 0 0 1 0.01 0 0.99 1
8
 1 0 0 1 0.01 0 0.99 1
8
 1 0 0 1 0.01 0 0.99 1
8
 1 0 0 1 0.01 0 0.99 1
8
 1 0 0 1 0.01 0 0.99 1
8
 1 0 0 1 0.01 0 0.99 1
8
 1 0 0 1 0.8 0 0.2 1
8
 1 0 0 1 0.01 0 0.99 1
8
 1 0 0 1 0.01 0 0.99 1
8
 1 0 0 1 0.01 0 0.99 1
8
 1 0 0 1 0.01 0 0.99 1
8
 1 0 0 1 0.01 0 0.99 1
8
 1 0 0 1 0.01 0 0.99 1
8
 1 0 0 1 0.01 0 0.99 1
2
 0.03 1
8
 1 0 0.1 0.9 0.5 0.5 0.05 0.95
8
 1 0 0 1 0.5 0 0.5 1
8
 1 0 0 1 0.1 0 0.9 1
8
 1 0 0 1 0.1 0 0.9 1
8
 1 0 0 1 0.1 0 0.9 1
8
 1 0 0 1 0.09 0 0.91 1
8
 1 0 0 1 0.5 0 0.5 1
8
 1 0 0 1 0.01 0 0.99 1
8
 1 0 0 1 0.95 0 0.05 1
8
 1 0 0 1 0.5 0 0.5 1
8
 1 0 0 1 0.19 0 0.81 1
8
 1 0 0 1 0.01 0 0.99 1
8
 1 0 0 1 0.01 0 0.99 1
8
 1 0 0 1 0.09 0 0.91 1
8
 1 0 0 1 0.5 0 0.5 1
8
 1 0 0 1 0.01 0 0.99 1
8
 1 0 0 1 0.1 0 0.9 1
8
 1 0 0 1 0.05 0 0.95 1
8
 1 0 0 1 0.1 0 0.9 1
8
 1 0 0 1 0.19 0 0.81 1
8
 1 0 0 1 0.19 0 0.81 1
8
 1 0 0 1 0.1 0 0.9 1
8
 1 0 0 1 0.05 0 0.95 1
8
 1 0 0 1 0.5 0 0.5 1
8
 1 0 0 1 0.05 0 0.95 1
8
 1 0 0 1 0.01 0 0.99 1
8
 1 0 0 1 0.5 0 0.5 1
8
 1 0 0 1 0.2 0 0.8 1
8
 1 0 0 1 0.1 0 0.9 1
8
 1 0 0 1 0.5 0 0.5 1
8
 1 0 0 1 0.5 0 0.5 1
8
 1 0 0 1 0.95 0 0.05 1
8
 1 0 0 1 0.89 0 0.11 1
8
 1 0 0 1 0.5 0 0.5 1
8
 1 0 0 1 0.5 0 0.5 1
8
 1 0 0 1 0.01 0 0.99 1
8
 1 0 0 1 0.5 0 0.5 1
8
 1 0 0 1 0.2 0 0.8 1
8
 1 0 0 1 0.5 0 0.5 1
8
 1 0 0 1 0.5 0 0.5 1
8
 1 0 0 1 0.09 0 0.91 1
8
 1 0 0 1 0.19 0 0.81 1
8
 1 0 0 1 0.5 0 0.5 1
8
 1 0 0 1 0.09 0 0.91 1
8
 1 0 0 1 0.5 0 0.5 1
8
 1 0 0 1 0.59 0 0.41 1
8
 1 0 0 1 0.5 0 0.5 1
8
 1 0 0 1 0.1 0 0.9 1
8
 1 0 0 1 0.1 0 0.9 1
8
 1 0 0 1 0.01 0 0.99 1
8
 1 0 0 1 0.3 0 0.7 1
8
 1 0 0 1 0 0 1 1
8
 1 0 0 1 0.1 0 0.9 1
8
 1 0 0 1 0.5 0 0.5 1
8
 1 0 0 1 0.5 0 0.5 1
8
 1 0 0 1 0.19 0 0.81 1
8
 1 0 0 1 0.5 0 0.5 1
8
 1 0 0 1 0.19 0 0.81 1
8
 1 0 0 1 0.09 0 0.91 1
8
 1 0 0 1 0.1 0 0.9 1
8
 1 0 0 1 0.5 0 0.5 1
8
 1 0 0 1 0.5 0 0.5 1
8
 1 0 0 1 0.59 0 0.41 1
8
 1 0 0 1 0.05 0 0.95 1
8
 1 0 0 1 0.19 0 0.81 1
8
 1 0 0 1 0.05 0 0.95 1
8
 1 0 0 1 0.2 0 0.8 1
8
 1 0 0 1 0.1 0 0.9 1
8
 1 0 0 1 0.5 0 0.5 1
8
 1 0 0 1 0.5 0 0.5 1
8
 1 0 0 1 0.1 0 0.9 1
2
 0.03 1
8
 1 0 0.9 0.1 0.05 0.95 0.045 0.955
8
 1 0 0 1 0.9 0 0.1 1
8
 1 0 0 1 0.05 0 0.95 1
8
 1 0 0 1 0.05 0 0.95 1
8
 1 0 0 1 0.05 0 0.95 1
8
 1 0 0 1 0.9 0 0.1 1
8
 1 0 0 1 0.3 0 0.7 1
8
 1 0 0 1 0.1 0 0.9 1
8
 1 0 0 1 0.9 0 0.1 1
8
 1 0 0 1 0.3 0 0.7 1
8
 1 0 0 1 0.05 0 0.95 1
8
 1 0 0 1 0.3 0 0.7 1
8
 1 0 0 1 0.05 0 0.95 1
8
 1 0 0 1 0.05 0 0.95 1
8
 1 0 0 1 0.05 0 0.95 1
8
 1 0 0 1 0.5 0 0.5 1
8
 1 0 0 1 0.3 0 0.7 1
8
 1 0 0 1 0.5 0 0.5 1
8
 1 0 0 1 0.9 0 0.1 1
8
 1 0 0 1 0.05 0 0.95 1
8
 1 0 0 1 0.3 0 0.7 1
8
 1 0 0 1 0.05 0 0.95 1
8
 1 0 0 1 0.05 0 0.95 1
8
 1 0 0 1 0.05 0 0.95 1
8
 1 0 0 1 0.05 0 0.95 1
8
 1 0 0 1 0.5 0 0.5 1
8
 1 0 0 1 0.4 0 0.6 1
8
 1 0 0 1 0.9 0 0.1 1
8
 1 0 0 1 0.5 0 0.5 1
8
 1 0 0 1 0.7 0 0.3 1
8
 1 0 0 1 0.01 0 0.99 1
8
 1 0 0 1 0.9 0 0.1 1
8
 1 0 0 1 0.9 0 0.1 1
8
 1 0 0 1 0.05 0 0.95 1
8
 1 0 0 1 0.4 0 0.6 1
8
 1 0 0 1 0.9 0 0.1 1
8
 1 0 0 1 0.9 0 0.1 1
8
 1 0 0 1 0.75 0 0.25 1
8
 1 0 0 1 0.05 0 0.95 1
8
 1 0 0 1 0.05 0 0.95 1
8
 1 0 0 1 0.3 0 0.7 1
8
 1 0 0 1 0.9 0 0.1 1
8
 1 0 0 1 0.5 0 0.5 1
8
 1 0 0 1 0.9 0 0.1 1
8
 1 0 0 1 0.3 0 0.7 1
8
 1 0 0 1 0.5 0 0.5 1
8
 1 0 0 1 0.05 0 0.95 1
8
 1 0 0 1 0.9 0 0.1 1
8
 1 0 0 1 0.5 0 0.5 1
8
 1 0 0 1 0.9 0 0.1 1
8
 1 0 0 1 0.9 0 0.1 1
8
 1 0 0 1 0.9 0 0.1 1
8
 1 0 0 1 0.05 0 0.95 1
8
 1 0 0 1 0.05 0 0.95 1
8
 1 0 0 1 0.05 0 0.95 1
8
 1 0 0 1 0.05 0 0.95 1
8
 1 0 0 1 0.05 0 0.95 1
8
 1 0 0 1 0.3 0 0.7 1
8
 1 0 0 1 0.05 0 0.95 1
8
 1 0 0 1 0.05 0 0.95 1
8
 1 0 0 1 0.9 0 0.1 1
8
 1 0 0 1 0.3 0 0.7 1
8
 1 0 0 1 0.5 0 0.5 1
8
 1 0 0 1 0.05 0 0.95 1
8
 1 0 0 1 0.1 0 0.9 1
8
 1 0 0 1 0.9 0 0.1 1
8
 1 0 0 1 0.89 0 0.11 1
8
 1 0 0 1 0.05 0 0.95 1
8
 1 0 0 1 0.9 0 0.1 1
8
 1 0 0 1 0.89 0 0.11 1
8
 1 0 0 1 0.05 0 0.95 1
8
 1 0 0 1 0.09 0 0.91 1
8
 1 0 0 1 0.05 0 0.95 1
8
 1 0 0 1 0.02 0 0.98 1
8
 1 0 0 1 0.05 0 0.95 1
8
 1 0 0 1 0.2 0 0.8 1
8
 1 0 0 1 0.05 0 0.95 1
8
 1 0 0 1 0.05 0 0.95 1
8
 1 0 0 1 0.3 0 0.7 1
8
 1 0 0 1 0.05 0 0.95 1
8
 1 0 0 1 0.4 0 0.6 1
8
 1 0 0 1 0.05 0 0.95 1
8
 1 0 0 1 0.05 0 0.95 1
8
 1 0 0 1 0.9 0 0.1 1
8
 1 0 0 1 0.05 0 0.95 1
2
 0.03 1
8
 1 0 0.2 0.8 0.3 0.7 0.06 0.94
2
 0.03 1
8
 1 0 0.57 0.43 0.5 0.5 0.285 0.715
8
 1 0 0 1 0.1 0 0.9 1
8
 1 0 0 1 0 0 1 1
8
 1 0 0 1 0.09 0 0.91 1
8
 1 0 0 1 0.5 0 0.5 1
8
 1 0 0 1 0.1 0 0.9 1
8
 1 0 0 1 0 0 1 1
8
 1 0 0 1 0.5 0 0.5 1
8
 1 0 0 1 0.5 0 0.5 1
8
 1 0 0 1 0.5 0 0.5 1
8
 1 0 0 1 0 0 1 1
8
 1 0 0 1 0.01 0 0.99 1
8
 1 0 0 1 0.5 0 0.5 1
8
 1 0 0 1 0.5 0 0.5 1
8
 1 0 0 1 0 0 1 1
8
 1 0 0 1 0.4 0 0.6 1
8
 1 0 0 1 0.1 0 0.9 1
8
 1 0 0 1 0.01 0 0.99 1
2
 0.03 1
8
 1 0 0 1 0 1 0 1
8
 1 0 0 1 0 0 1 1
8
 1 0 0 1 0 0 1 1
8
 1 0 0 1 0 0 1 1
8
 1 0 0 1 0 0 1 1
8
 1 0 0 1 0 0 1 1
8
 1 0 0 1 0 0 1 1
8
 1 0 0 1 0 0 1 1
8
 1 0 0 1 0 0 1 1
8
 1 0 0 1 0 0 1 1
8
 1 0 0 1 0 0 1 1
8
 1 0 0 1 0 0 1 1
8
 1 0 0 1 0 0 1 1
8
 1 0 0 1 0 0 1 1
8
 1 0 0 1 0 0 1 1
8
 1 0 0 1 0 0 1 1
8
 1 0 0 1 0 0 1 1
8
 1 0 0 1 0 0 1 1
8
 1 0 0 1 0 0 1 1
8
 1 0 0 1 0 0 1 1
8
 1 0 0 1 0 0 1 1
8
 1 0 0 1 0 0 1 1
8
 1 0 0 1 0 0 1 1
8
 1 0 0 1 0 0 1 1
8
 1 0 0 1 0 0 1 1
8
 1 0 0 1 0 0 1 1
8
 1 0 0 1 0 0 1 1
8
 1 0 0 1 0 0 1 1
8
 1 0 0 1 0 0 1 1
8
 1 0 0 1 0 0 1 1
8
 1 0 0 1 0 0 1 1
8
 1 0 0 1 0 0 1 1
8
 1 0 0 1 0 0 1 1
8
 1 0 0 1 0 0 1 1
8
 1 0 0 1 0 0 1 1
8
 1 0 0 1 0 0 1 1
8
 1 0 0 1 0 0 1 1
8
 1 0 0 1 0 0 1 1
8
 1 0 0 1 0 0 1 1
8
 1 0 0 1 0 0 1 1
8
 1 0 0 1 0 0 1 1
8
 1 0 0 1 0 0 1 1
8
 1 0 0 1 0 0 1 1
8
 1 0 0 1 0 0 1 1
8
 1 0 0 1 0 0 1 1
8
 1 0 0 1 0 0 1 1
8
 1 0 0 1 0 0 1 1
8
 1 0 0 1 0 0 1 1
8
 1 0 0 1 0 0 1 1
8
 1 0 0 1 0 0 1 1
8
 1 0 0 1 0 0 1 1
8
 1 0 0 1 0 0 1 1
8
 1 0 0 1 0 0 1 1
8
 1 0 0 1 0 0 1 1
8
 1 0 0 1 0 0 1 1
8
 1 0 0 1 0 0 1 1
8
 1 0 0 1 0 0 1 1
8
 1 0 0 1 0 0 1 1
2
 0.03 1
8
 1 0 0.3 0.7 0.5 0.5 0.15 0.85
8
 1 0 0 1 0 0 1 1
8
 1 0 0 1 0.01 0 0.99 1
2
 0.03 1
8
 1 0 0.2 0.8 0.5 0.5 0.1 0.9
8
 1 0 0 1 0.5 0 0.5 1
8
 1 0 0 1 0.5 0 0.5 1
8
 1 0 0 1 0.5 0 0.5 1
8
 1 0 0 1 0.1 0 0.9 1
8
 1 0 0 1 0.05 0 0.95 1
8
 1 0 0 1 0.5 0 0.5 1
8
 1 0 0 1 0.1 0 0.9 1
8
 1 0 0 1 0.5 0 0.5 1
8
 1 0 0 1 0.01 0 0.99 1
8
 1 0 0 1 0.1 0 0.9 1
8
 1 0 0 1 0.5 0 0.5 1
8
 1 0 0 1 0.1 0 0.9 1
8
 1 0 0 1 0.09 0 0.91 1
8
 1 0 0 1 0.5 0 0.5 1
8
 1 0 0 1 0.5 0 0.5 1
8
 1 0 0 1 0.5 0 0.5 1
8
 1 0 0 1 0.5 0 0.5 1
8
 1 0 0 1 0.2 0 0.8 1
8
 1 0 0 1 0.05 0 0.95 1
8
 1 0 0 1 0.5 0 0.5 1
8
 1 0 0 1 0.5 0 0.5 1
8
 1 0 0 1 0.05 0 0.95 1
8
 1 0 0 1 0.5 0 0.5 1
8
 1 0 0 1 0.5 0 0.5 1
8
 1 0 0 1 0.5 0 0.5 1
8
 1 0 0 1 0.1 0 0.9 1
2
 0.03 1
8
 1 0 0.57 0.43 0.5 0.5 0.285 0.715
8
 1 0 0 1 0.1 0 0.9 1
8
 1 0 0 1 0.01 0 0.99 1
8
 1 0 0 1 0.09 0 0.91 1
8
 1 0 0 1 0.5 0 0.5 1
8
 1 0 0 1 0.1 0 0.9 1
8
 1 0 0 1 0.5 0 0.5 1
8
 1 0 0 1 0.01 0 0.99 1
8
 1 0 0 1 0.5 0 0.5 1
8
 1 0 0 1 0.5 0 0.5 1
8
 1 0 0 1 0.05 0 0.95 1
8
 1 0 0 1 0.01 0 0.99 1
8
 1 0 0 1 0.5 0 0.5 1
8
 1 0 0 1 0.5 0 0.5 1
8
 1 0 0 1 0.01 0 0.99 1
8
 1 0 0 1 0.4 0 0.6 1
8
 1 0 0 1 0.1 0 0.9 1
8
 1 0 0 1 0.01 0 0.99 1
8
 1 0 0 1 0.2 0 0.8 1
2
 0.03 1
2
 0 0.95
8
 1 0 0 1 0 1 0 1
8
 1 0 0 1 0 0 1 1
8
 1 0 0 1 0 0 1 1
2
 0.03 1
8
 1 0 0.5 0.5 0.5 0.5 0.25 0.75
8
 1 0 0 1 0.8 0 0.2 1
8
 1 0 0 1 0.9 0 0.1 1
8
 1 0 0 1 0.01 0 0.99 1
8
 1 0 0 1 0.6 0 0.4 1
8
 1 0 0 1 0.4 0 0.6 1
8
 1 0 0 1 0.5 0 0.5 1
8
 1 0 0 1 0.5 0 0.5 1
8
 1 0 0 1 0.1 0 0.9 1
8
 1 0 0 1 0.6 0 0.4 1
8
 1 0 0 1 0.5 0 0.5 1
8
 1 0 0 1 0.1 0 0.9 1
8
 1 0 0 1 0.1 0 0.9 1
8
 1 0 0 1 0.5 0 0.5 1
8
 1 0 0 1 0.1 0 0.9 1
8
 1 0 0 1 0.1 0 0.9 1
8
 1 0 0 1 0.1 0 0.9 1
8
 1 0 0 1 0.5 0 0.5 1
8
 1 0 0 1 0.5 0 0.5 1
8
 1 0 0 1 0.75 0 0.25 1
8
 1 0 0 1 0.1 0 0.9 1
8
 1 0 0 1 0.5 0 0.5 1
8
 1 0 0 1 0.5 0 0.5 1
8
 1 0 0 1 0.05 0 0.95 1
8
 1 0 0 1 0.2 0 0.8 1
8
 1 0 0 1 0.5 0 0.5 1
8
 1 0 0 1 0.5 0 0.5 1
8
 1 0 0 1 0.2 0 0.8 1
8
 1 0 0 1 0.1 0 0.9 1
8
 1 0 0 1 0.5 0 0.5 1
8
 1 0 0 1 0.5 0 0.5 1
8
 1 0 0 1 0.05 0 0.95 1
8
 1 0 0 1 0.3 0 0.7 1
8
 1 0 0 1 0.5 0 0.5 1
8
 1 0 0 1 0.01 0 0.99 1
8
 1 0 0 1 0.5 0 0.5 1
8
 1 0 0 1 0.5 0 0.5 1
8
 1 0 0 1 0.5 0 0.5 1
8
 1 0 0 1 0.1 0 0.9 1
2
 0.03 1
8
 1 0 0.05 0.95 0.05 0.95 0.0025 0.9975
8
 1 0 0 1 0.05 0 0.95 1
8
 1 0 0 1 0.05 0 0.95 1
8
 1 0 0 1 0.05 0 0.95 1
8
 1 0 0 1 0.05 0 0.95 1
8
 1 0 0 1 0.05 0 0.95 1
8
 1 0 0 1 0.05 0 0.95 1
8
 1 0 0 1 0.05 0 0.95 1
8
 1 0 0 1 0.05 0 0.95 1
8
 1 0 0 1 0.05 0 0.95 1
8
 1 0 0 1 0.05 0 0.95 1
8
 1 0 0 1 0.05 0 0.95 1
8
 1 0 0 1 0.05 0 0.95 1
8
 1 0 0 1 0.05 0 0.95 1
8
 1 0 0 1 0.05 0 0.95 1
8
 1 0 0 1 0.05 0 0.95 1
8
 1 0 0 1 0.05 0 0.95 1
8
 1 0 0 1 0.05 0 0.95 1
8
 1 0 0 1 0.05 0 0.95 1
8
 1 0 0 1 0.05 0 0.95 1
8
 1 0 0 1 0.05 0 0.95 1
8
 1 0 0 1 0.05 0 0.95 1
8
 1 0 0 1 0.05 0 0.95 1
8
 1 0 0 1 0.05 0 0.95 1
8
 1 0 0 1 0.05 0 0.95 1
8
 1 0 0 1 0.05 0 0.95 1
8
 1 0 0 1 0.05 0 0.95 1
8
 1 0 0 1 0.05 0 0.95 1
8
 1 0 0 1 0.05 0 0.95 1
8
 1 0 0 1 0.05 0 0.95 1
8
 1 0 0 1 0.05 0 0.95 1
8
 1 0 0 1 0.05 0 0.95 1
8
 1 0 0 1 0.05 0 0.95 1
8
 1 0 0 1 0.05 0 0.95 1
8
 1 0 0 1 0.05 0 0.95 1
8
 1 0 0 1 0.05 0 0.95 1
8
 1 0 0 1 0.05 0 0.95 1
8
 1 0 0 1 0.05 0 0.95 1
8
 1 0 0 1 0.05 0 0.95 1
8
 1 0 0 1 0.05 0 0.95 1
2
 0.03 1
8
 1 0 0 1 0.9 0.1 0 1
8
 1 0 0 1 0.2 0 0.8 1
8
 1 0 0 1 0.4 0 0.6 1
8
 1 0 0 1 0.5 0 0.5 1
8
 1 0 0 1 0 0 1 1
8
 1 0 0 1 0.9 0 0.1 1
8
 1 0 0 1 0.5 0 0.5 1
8
 1 0 0 1 0.89 0 0.11 1
8
 1 0 0 1 0.5 0 0.5 1
8
 1 0 0 1 0 0 1 1
8
 1 0 0 1 0.89 0 0.11 1
8
 1 0 0 1 0.5 0 0.5 1
8
 1 0 0 1 0.2 0 0.8 1
8
 1 0 0 1 0.4 0 0.6 1
8
 1 0 0 1 0.1 0 0.9 1
8
 1 0 0 1 0.5 0 0.5 1
8
 1 0 0 1 0.5 0 0.5 1
8
 1 0 0 1 0.1 0 0.9 1
8
 1 0 0 1 0 0 1 1
8
 1 0 0 1 0.5 0 0.5 1
8
 1 0 0 1 0.01 0 0.99 1
8
 1 0 0 1 0 0 1 1
8
 1 0 0 1 0 0 1 1
8
 1 0 0 1 0 0 1 1
8
 1 0 0 1 0.5 0 0.5 1
8
 1 0 0 1 0.9 0 0.1 1
8
 1 0 0 1 0.5 0 0.5 1
8
 1 0 0 1 0 0 1 1
8
 1 0 0 1 0.5 0 0.5 1
8
 1 0 0 1 0.9 0 0.1 1
8
 1 0 0 1 0.5 0 0.5 1
8
 1 0 0 1 0.1 0 0.9 1
8
 1 0 0 1 0 0 1 1
8
 1 0 0 1 0.1 0 0.9 1
8
 1 0 0 1 0.5 0 0.5 1
8
 1 0 0 1 0.9 0 0.1 1
8
 1 0 0 1 0.5 0 0.5 1
8
 1 0 0 1 0.5 0 0.5 1
8
 1 0 0 1 0.9 0 0.1 1
8
 1 0 0 1 0.09 0 0.91 1
8
 1 0 0 1 0.5 0 0.5 1
8
 1 0 0 1 0.1 0 0.9 1
8
 1 0 0 1 0.5 0 0.5 1
8
 1 0 0 1 0.5 0 0.5 1
8
 1 0 0 1 0.9 0 0.1 1
8
 1 0 0 1 0.09 0 0.91 1
8
 1 0 0 1 0.5 0 0.5 1
8
 1 0 0 1 0.5 0 0.5 1
8
 1 0 0 1 0 0 1 1
8
 1 0 0 1 0.5 0 0.5 1
8
 1 0 0 1 0 0 1 1
8
 1 0 0 1 0 0 1 1
8
 1 0 0 1 0.5 0 0.5 1
8
 1 0 0 1 0.1 0 0.9 1
8
 1 0 0 1 0.5 0 0.5 1
8
 1 0 0 1 0.57 0 0.43 1
8
 1 0 0 1 0 0 1 1
8
 1 0 0 1 0 0 1 1
8
 1 0 0 1 0.5 0 0.5 1
8
 1 0 0 1 0.5 0 0.5 1
8
 1 0 0 1 0.9 0 0.1 1
8
 1 0 0 1 0 0 1 1
8
 1 0 0 1 0.5 0 0.5 1
8
 1 0 0 1 0.1 0 0.9 1
8
 1 0 0 1 0.5 0 0.5 1
8
 1 0 0 1 0.1 0 0.9 1
8
 1 0 0 1 0.5 0 0.5 1
8
 1 0 0 1 0.4 0 0.6 1
8
 1 0 0 1 0.5 0 0.5 1
8
 1 0 0 1 0 0 1 1
8
 1 0 0 1 0.5 0 0.5 1
8
 1 0 0 1 0.9 0 0.1 1
8
 1 0 0 1 0.5 0 0.5 1
8
 1 0 0 1 0.89 0 0.11 1
8
 1 0 0 1 0.5 0 0.5 1
8
 1 0 0 1 0.5 0 0.5 1
8
 1 0 0 1 0.5 0 0.5 1
8
 1 0 0 1 0.4 0 0.6 1
8
 1 0 0 1 0.5 0 0.5 1
8
 1 0 0 1 0 0 1 1
8
 1 0 0 1 0.1 0 0.9 1
8
 1 0 0 1 0.6 0 0.4 1
8
 1 0 0 1 0.5 0 0.5 1
8
 1 0 0 1 0.1 0 0.9 1
8
 1 0 0 1 0.5 0 0.5 1
8
 1 0 0 1 0 0 1 1
8
 1 0 0 1 0 0 1 1
8
 1 0 0 1 0.1 0 0.9 1
8
 1 0 0 1 0.59 0 0.41 1
8
 1 0 0 1 0 0 1 1
8
 1 0 0 1 0.4 0 0.6 1
8
 1 0 0 1 0 0 1 1
8
 1 0 0 1 0.5 0 0.5 1
8
 1 0 0 1 0.9 0 0.1 1
8
 1 0 0 1 0.5 0 0.5 1
8
 1 0 0 1 0 0 1 1
8
 1 0 0 1 0 0 1 1
8
 1 0 0 1 0.9 0 0.1 1
8
 1 0 0 1 0.4 0 0.6 1
8
 1 0 0 1 0.5 0 0.5 1
8
 1 0 0 1 0.1 0 0.9 1
8
 1 0 0 1 0.4 0 0.6 1
8
 1 0 0 1 0 0 1 1
8
 1 0 0 1 0.5 0 0.5 1
8
 1 0 0 1 0.09 0 0.91 1
8
 1 0 0 1 0 0 1 1
8
 1 0 0 1 0 0 1 1
8
 1 0 0 1 0 0 1 1
8
 1 0 0 1 0 0 1 1
8
 1 0 0 1 0 0 1 1
8
 1 0 0 1 0.5 0 0.5 1
8
 1 0 0 1 0.5 0 0.5 1
8
 1 0 0 1 0.5 0 0.5 1
8
 1 0 0 1 0.5 0 0.5 1
8
 1 0 0 1 0.5 0 0.5 1
8
 1 0 0 1 0 0 1 1
8
 1 0 0 1 0.5 0 0.5 1
8
 1 0 0 1 0.4 0 0.6 1
8
 1 0 0 1 0.5 0 0.5 1
8
 1 0 0 1 0.7 0 0.3 1
8
 1 0 0 1 0.5 0 0.5 1
8
 1 0 0 1 0.89 0 0.11 1
8
 1 0 0 1 0.5 0 0.5 1
8
 1 0 0 1 0.9 0 0.1 1
8
 1 0 0 1 0 0 1 1
8
 1 0 0 1 0.9 0 0.1 1
8
 1 0 0 1 0.5 0 0.5 1
8
 1 0 0 1 0.5 0 0.5 1
8
 1 0 0 1 0 0 1 1
8
 1 0 0 1 0.75 0 0.25 1
8
 1 0 0 1 0 0 1 1
8
 1 0 0 1 0.09 0 0.91 1
8
 1 0 0 1 0.5 0 0.5 1
8
 1 0 0 1 0 0 1 1
8
 1 0 0 1 0.5 0 0.5 1
8
 1 0 0 1 0 0 1 1
8
 1 0 0 1 0.9 0 0.1 1
8
 1 0 0 1 0.7 0 0.3 1
8
 1 0 0 1 0.4 0 0.6 1
8
 1 0 0 1 0.5 0 0.5 1
8
 1 0 0 1 0.1 0 0.9 1
8
 1 0 0 1 0 0 1 1
8
 1 0 0 1 0.6 0 0.4 1
8
 1 0 0 1 0.5 0 0.5 1
8
 1 0 0 1 0.4 0 0.6 1
8
 1 0 0 1 0.9 0 0.1 1
8
 1 0 0 1 0.5 0 0.5 1
8
 1 0 0 1 0.9 0 0.1 1
8
 1 0 0 1 0 0 1 1
8
 1 0 0 1 0 0 1 1
8
 1 0 0 1 0.4 0 0.6 1
8
 1 0 0 1 0 0 1 1
8
 1 0 0 1 0.09 0 0.91 1
8
 1 0 0 1 0 0 1 1
8
 1 0 0 1 0.9 0 0.1 1
8
 1 0 0 1 0.5 0 0.5 1
8
 1 0 0 1 0 0 1 1
8
 1 0 0 1 0.9 0 0.1 1
8
 1 0 0 1 0 0 1 1
8
 1 0 0 1 0.9 0 0.1 1
8
 1 0 0 1 0 0 1 1
8
 1 0 0 1 0.05 0 0.95 1
8
 1 0 0 1 0.5 0 0.5 1
8
 1 0 0 1 0.5 0 0.5 1
8
 1 0 0 1 0.5 0 0.5 1
8
 1 0 0 1 0 0 1 1
8
 1 0 0 1 0.5 0 0.5 1
8
 1 0 0 1 0 0 1 1
8
 1 0 0 1 0.1 0 0.9 1
8
 1 0 0 1 0 0 1 1
8
 1 0 0 1 0.5 0 0.5 1
8
 1 0 0 1 0 0 1 1
8
 1 0 0 1 0 0 1 1
8
 1 0 0 1 0.9 0 0.1 1
8
 1 0 0 1 0.01 0 0.99 1
2
 0.03 1
2
 0.9995 0.0005
2
 0.99995 5e-05
2
 0.99992 8e-05
2
 0.999995 5e-06
2
 0.9999 0.0001
2
 0.9999 0.0001
2
 0.9986 0.0014
2
 0.99999 1e-05
2
 0.99 0.01
2
 0.99975 0.00025
2
 0.9998 0.0002
2
 0.99999 1e-05
2
 0.99995 5e-05
2
 0.9999 0.0001
2
 0.99991 9e-05
2
 0.9998 0.0002
2
 0.99999 1e-05
2
 0.9999 0.0001
2
 0.9999 0.0001
2
 0.99975 0.00025
2
 0.9999 0.0001
2
 0.9999 0.0001
2
 0.9999 0.0001
2
 0.999999 1e-06
2
 0.99989 0.00011
2
 0.9999 0.0001
2
 0.9999 0.0001
2
 0.9999 0.0001
2
 0.9999 0.0001
2
 0.99998 2e-05
2
 0.99999 1e-05
2
 0.99999 1e-05
2
 0.9999 0.0001
2
 0.99995 5e-05
2
 0.998 0.002
2
 0.99974 0.00026
2
 0.999998 2e-06
2
 0.999999 1e-06
2
 0.9999 0.0001
2
 0.9999 0.0001
2
 0.99989 0.00011
2
 0.99995 5e-05
2
 0.9999 0.0001
2
 0.99996 4e-05
2
 0.99982 0.00018
2
 0.9996 0.0004
2
 0.9999 0.0001
2
 0.99996 4e-05
2
 0.99981 0.00019
2
 0.9999 0.0001
2
 0.9999 0.0001
2
 0.99998 2e-05
2
 0.9999 0.0001
2
 0.9999 0.0001
2
 0.9999 0.0001
2
 0.9991 0.0009
2
 0.99992 8e-05
2
 0.9995 0.0005
2
 0.9999 0.0001
2
 0.99989 0.00011
2
 0.99999 1e-05
2
 0.9999 0.0001
2
 0.99998 2e-05
2
 0.99999 1e-05
2
 0.99989 0.00011
2
 0.9996 0.0004
2
 0.99996 4e-05
2
 0.99995 5e-05
2
 0.9999 0.0001
2
 0.9995 0.0005
2
 0.99999 1e-05
2
 0.999973 2.7e-05
2
 0.99995 5e-05
2
 0.99999 1e-05
2
 0.9999 0.0001
2
 0.9999 0.0001
2
 0.9991 0.0009
2
 0.9999 0.0001
2
 0.995 0.005
2
 0.99995 5e-05
2
 0.9999 0.0001
2
 0.99985 0.00015
2
 0.9999 0.0001
2
 0.999 0.001
2
 0.99991 9e-05
2
 0.9996 0.0004
2
 0.99998 2e-05
2
 0.99999 1e-05
2
 0.9999 0.0001
2
 0.9999 0.0001
2
 0.9998 0.0002
2
 0.9995 0.0005
2
 0.99999 1e-05
2
 0.9995 0.0005
2
 0.99922 0.00078
2
 0.9997 0.0003
2
 0.9994 0.0006
2
 0.9998 0.0002
2
 0.9991 0.0009
2
 0.99993 7e-05
2
 0.9998 0.0002
2
 0.99995 5e-05
2
 0.9998 0.0002
2
 0.9998 0.0002
2
 0.99998 2e-05
2
 0.9994 0.0006
2
 0.99975 0.00025
2
 0.99999 1e-05
2
 0.9999 0.0001
2
 0.9999 0.0001
2
 0.9995 0.0005
2
 0.9999 0.0001
2
 0.9995 0.0005
2
 0.9998 0.0002
2
 0.9997 0.0003
2
 0.9999 0.0001
2
 0.9995 0.0005
2
 0.99984 0.00016
2
 0.99993 7e-05
2
 0.9996 0.0004
2
 0.9999 0.0001
2
 0.9999 0.0001
2
 0.99997 3e-05
2
 0.9999 0.0001
2
 0.999 0.001
2
 0.9996 0.0004
2
 0.9999 0.0001
2
 0.999 0.001
2
 0.9999 0.0001
2
 0.99998 2e-05
2
 0.99995 5e-05
2
 0.9965 0.0035
2
 0.9999 0.0001
2
 0.9928 0.0072
2
 0.9999 0.0001
2
 0.99985 0.00015
2
 0.99996 4e-05
2
 0.9999 0.0001
2
 0.9999 0.0001
2
 0.9999 0.0001
2
 0.9995 0.0005
2
 0.999977 2.291e-05
2
 0.996 0.004
2
 0.999999 1e-06
2
 0.9991 0.0009
2
 0.9999 0.0001
2
 0.99989 0.00011
2
 0.9999 0.0001
2
 0.99995 5e-05
2
 1 2e-07
2
 0.99975 0.00025
2
 0.9988 0.0012
2
 0.99995 5e-05
2
 0.997 0.003
2
 0.988 0.012
2
 0.99987 0.00013
2
 0.9999 0.0001
2
 0.9999 0.0001
2
 0.9997 0.0003
2
 0.9995 0.0005
2
 0.999999 6.2e-07
2
 0.99995 5e-05
2
 0.9999 0.0001
2
 0.99998 2e-05
2
 0.99974 0.00026
2
 1 1.2e-07
2
 0.999 0.001
2
 0.9995 0.0005
2
 0.9996 0.0004
2
 0.99992 8e-05
2
 0.9985 0.0015
2
 0.99995 5e-05
2
 0.9999 0.0001
2
 0.9999 0.0001
2
 0.999997 2.82e-06
2
 0.99998 2e-05
2
 0.99999 1e-05
2
 0.9999 0.0001
2
 0.9995 0.0005
2
 0.9999 0.0001
2
 0.9999 0.0001
2
 0.9999 0.0001
2
 0.9995 0.0005
2
 0.999996 4e-06
2
 1 1.6e-07
2
 0.9999 0.0001
2
 0.9994 0.0006
2
 0.9999 0.0001
2
 0.9999 0.0001
2
 0.999907 9.332e-05
2
 0.9999 0.0001
2
 0.9994 0.0006
2
 0.9999 0.0001
2
 0.99989 0.00011
2
 0.999969 3.12e-05
2
 0.999999 1e-06
2
 0.9992 0.0008
2
 0.99995 5e-05
2
 0.999992 8e-06
2
 0.9999 0.0001
2
 0.99975 0.00025
2
 0.9999 0.0001
2
 0.99764 0.00236
2
 0.9999 0.0001
2
 0.99999 1e-05
2
 0.9999 0.0001
2
 0.99999 1e-05
2
 0.9998 0.0002
2
 0.99998 2e-05
2
 0.9999 0.0001
2
 0.9999 0.0001
2
 0.9999 0.0001
2
 0.99999 1e-05
2
 0.9995 0.0005
2
 0.9995 0.0005
2
 0.99991 9e-05
2
 0.99991 9e-05
2
 0.9999 0.0001
2
 0.9999 0.0001
2
 0.99995 5e-05
2
 0.99997 3e-05
2
 0.9995 0.0005
2
 0.9999 0.0001
2
 0.99995 5e-05
2
 0.9999 0.0001
2
 0.99994 6e-05
2
 0.999 0.001
2
 0.9979 0.0021
2
 0.9998 0.0002
2
 0.9999 0.0001
2
 0.9999 0.0001
2
 0.999999 1e-06
2
 0.99997 3e-05
2
 0.9999 0.0001
2
 0.9996 0.0004
2
 0.99995 5e-05
2
 0.9995 0.0005
2
 0.99989 0.00011
2
 0.99995 5e-05
2
 0.9999 0.0001
2
 0.997 0.003
2
 0.9996 0.0004
2
 0.99995 5e-05
2
 0.9975 0.0025
2
 0.999999 1e-06
2
 0.9999 0.0001
2
 0.999 0.001
2
 0.9995 0.0005
2
 0.99997 3e-05
2
 0.9999 0.0001
2
 0.9999 0.0001
2
 0.99999 1e-05
2
 0.9999 0.0001
2
 0.99996 4e-05
2
 0.9995 0.0005
2
 0.99997 3e-05
2
 0.9999 0.0001
2
 0.9995 0.0005
2
 0.9998 0.0002
2
 0.9994 0.0006
2
 0.9999 0.0001
2
 0.99997 3e-05
2
 0.9999 0.0001
2
 0.99998 2e-05
2
 0.999 0.001
2
 0.9999 0.0001
2
 0.9996 0.0004
2
 0.99993 7e-05
1
 1

